Ti4 O8
1.0
3.802710 0.000000 0.000000
0.000000 3.802710 0.000000
0.000000 0.000000 9.747752
Ti O
4 8
direct
0.000000 0.500000 0.250000 Ti
0.000000 0.000000 0.000000 Ti
0.500000 0.000000 0.750000 Ti
0.500000 0.500000 0.500000 Ti
0.000000 0.500000 0.456163 O
0.500000 0.500000 0.293837 O
0.000000 0.500000 0.043837 O
0.000000 0.000000 0.206163 O
0.500000 0.000000 0.956163 O
0.000000 0.000000 0.793837 O
0.500000 0.000000 0.543837 O
0.500000 0.500000 0.706163 O
